benchmarks_vrp/CMT3/no_cluster/CMT3_3.vrp
NAME: CMT3_3
TYPE: CVRP
COMMENT: 826.14 - Cluster Nr.3
DIMENSION: 14
CAPACITY: 200
EDGE_WEIGHT_TYPE: EUC_2D
NODE_COORD_TYPE: TWOD_COORDS
NODE_COORD_SECTION: 
7 20 40
5 15 47
10 30 60
8 35 40
6 20 50
9 41 49
11 37 56
12 26 52
13 26 35
1 31 52
14 35 35
2 24 58
3 37 47
4 27 43
DEPOT_SECTION: 
14
-1
DEMAND_SECTION: 
14 0
7 12
1 27
5 16
2 19
13 15
4 9
10 16
9 10
12 9
8 16
6 5
11 5
3 6
EOF
