benchmarks_vrp/CMT3/no_cluster/CMT3_3.tour
NAME: CMT3_3 solution
TYPE: TOUR
TOUR_SECTION:
14 8 3 9 11 1 10 2 12 6 5 7 4 13 -1
-1
EOF